c A SAT instance generated from a 3-CNF formula that had 45 clauses and 15 variables
p cnf 15 45
2 -15 7 0
11 4 -5 0
-9 -1 8 0
13 15 8 0
5 4 12 0
-10 5 2 0
14 -15 1 0
-5 6 11 0
10 -13 -5 0
-8 4 12 0
-14 -13 -1 0
10 -6 1 0
-13 4 -14 0
14 1 7 0
-11 6 4 0
-11 8 -5 0
14 11 -7 0
8 -6 9 0
-8 4 -6 0
-9 -3 7 0
6 -11 9 0
-2 -12 9 0
10 11 -9 0
1 14 4 0
-15 -2 8 0
-1 2 8 0
5 -10 11 0
1 -9 13 0
-3 14 5 0
-3 -15 11 0
10 3 -4 0
15 -6 -4 0
2 -15 5 0
8 -2 1 0
7 -2 6 0
4 -9 1 0
-7 -2 -6 0
-7 -15 -12 0
1 -10 -15 0
-8 -4 -13 0
8 -1 6 0
-2 5 -14 0
-4 2 14 0
-10 11 2 0
10 -2 -6 0
%
0

55 34 87 14 9 97 8 62 17 62 65 75 65 82 2
